
  32    4
  10   10   10   10

   0   0   0   0   0   5 2 28 29 30 31 
   3  10  10  10  10   2 27 3 
   8  10  10  10  10   3 26 25 4 
   8  10  10  10  10   2 24 5 
   1  10  10  10  10   2 23 6 
   1  10  10  10  10   1 7 
   3  10  10  10  10   2 22 8 
   5  10  10  10  10   1 9 
   5  10  10  10  10   2 21 10 
   6  10  10  10  10   4 20 19 18 11 
   6  10  10  10  10   1 12 
   4  10  10  10  10   1 13 
   3  10  10  10  10   2 17 14 
   5  10  10  10  10   1 15 
   7  10  10  10  10   1 16 
   3  10  10  10  10   1 32
   5  10  10  10  10   1 32
   9  10  10  10  10   1 32
   7  10  10  10  10   1 32
   1  10  10  10  10   1 32
  10  10  10  10  10   1 32
   1  10  10  10  10   1 32
   6  10  10  10  10   1 32
   5  10  10  10  10   1 32
   8  10  10  10  10   1 32
   8  10  10  10  10   1 32
   2  10  10  10  10   1 32
   3  10  10  10  10   1 32
   9  10  10  10  10   1 32
  10  10  10  10  10   1 32
   6  10  10  10  10   1 32
   0   0   0   0   0   0 
